NAME          ClpDefau
ROWS
 N  OBJROW
 L  R_116_0
 L  R_116_1
 L  R_116_2
 L  R_116_3
 L  R_116_4
 L  R_116_5
 L  R_116_6
 L  R_116_7
COLUMNS
    x_0       OBJROW     -8.           R_116_0   28.         
    x_0       R_116_1   75.            R_116_2   56.         
    x_0       R_116_3   93.            R_116_5   48.         
    x_0       R_116_6   57.            R_116_7   5.          
    x_1       OBJROW     -12.          R_116_1   41.         
    x_1       R_116_3   68.            R_116_4   23.         
    x_1       R_116_5   4.             R_116_6   23.         
    x_1       R_116_7   66.         
    x_2       OBJROW     -11.          R_116_0   66.         
    x_2       R_116_1   24.            R_116_3   54.         
    x_2       R_116_4   98.            R_116_5   76.         
    x_2       R_116_6   58.            R_116_7   97.         
    x_3       OBJROW     -47.          R_116_0   95.         
    x_3       R_116_1   68.            R_116_2   36.         
    x_3       R_116_4   46.            R_116_5   59.         
    x_3       R_116_7   73.         
    x_4       OBJROW     -22.          R_116_0   72.         
    x_4       R_116_1   63.            R_116_2   42.         
    x_4       R_116_6   99.         
    x_5       OBJROW     -95.          R_116_0   91.         
    x_5       R_116_2   65.            R_116_3   76.         
    x_5       R_116_4   94.            R_116_5   66.         
    x_5       R_116_6   88.            R_116_7   10.         
    x_6       OBJROW     -86.          R_116_0   44.         
    x_6       R_116_1   25.            R_116_3   74.         
    x_6       R_116_4   35.            R_116_5   88.         
    x_6       R_116_7   67.         
    x_7       OBJROW     -40.          R_116_0   35.         
    x_7       R_116_1   27.            R_116_3   92.         
    x_7       R_116_4   8.             R_116_5   23.         
    x_7       R_116_6   4.             R_116_7   9.          
RHS
    RHS       R_116_0   323.           R_116_1   325.        
    RHS       R_116_2   413.           R_116_3   322.        
    RHS       R_116_4   367.           R_116_5   352.        
    RHS       R_116_6   336.           R_116_7   424.        
BOUNDS
 UI BOUND     x_0       100.        
 UI BOUND     x_1       100.        
 UI BOUND     x_2       100.        
 UI BOUND     x_3       100.        
 UI BOUND     x_4       100.        
 UI BOUND     x_5       100.        
 UI BOUND     x_6       100.        
 UI BOUND     x_7       100.        
ENDATA
